10	5	2	0
0	1	7	4	2	9	10	7	6	1	[0 0 0]	[0 0 0]	[0 0 0]	[0 0 0]	[0 0 0]	[0 0 0]	[0 0 0]
1	3	3	11	3	5	[10 6 7]	[5 27 22 13 9 3 14 13 13]	[2 25 28 14 -3 -1 -1 -5 6]
2	3	3	5	11	8	[1 0 0 4 12 0 1 0 1]	[1 8 1]	[2 0 3 8 12 0 0 0 3]
3	3	2	11	7	[4 7 5]	[0 0 -1 -6 -1 1 -4 0 11]
4	3	2	10	11	[10 0 10 6 0 4 23 15 13]	[4 2 8]
5	3	3	7	4	1	[3 3 2 0 1 0 4 -1 5]	[0 2 2 3 2 0 -2 1 0]	[-4 -21 -8 -4 -7 -10 -24 -9 -12]
6	3	2	9	11	[7 12 4 12 17 -5 19 24 16]	[8 6 8]
7	3	1	10	[0 0 1 14 12 7 0 3 1]
8	3	3	6	11	4	[12 29 0 3 5 6 16 15 -4]	[10 2 6]	[10 16 -6 4 -1 3 -2 5 5]
9	3	2	3	11	[15 8 15 11 10 15 -2 0 8]	[5 5 5]
10	3	2	11	4	[10 5 7]	[-9 -6 -19 -14 -10 -15 -11 -21 -7]
11	1	0
0	1	0	0	0	0	0	0	0	0
1	1	10	4	3	2	2	3	1	5
	2	6	4	3	2	2	3	1	5
	3	7	4	3	2	2	3	1	5
2	1	1	5	3	1	3	4	3	5
	2	8	5	3	1	3	4	3	5
	3	1	5	3	1	3	4	3	5
3	1	4	2	1	3	3	5	2	4
	2	7	2	1	3	3	5	2	4
	3	5	2	1	3	3	5	2	4
4	1	4	3	1	3	2	2	2	4
	2	2	3	1	3	2	2	2	4
	3	8	3	1	3	2	2	2	4
5	1	1	2	5	5	1	4	4	5
	2	1	2	5	5	1	4	4	5
	3	3	2	5	5	1	4	4	5
6	1	8	2	1	5	2	2	5	1
	2	6	2	1	5	2	2	5	1
	3	8	2	1	5	2	2	5	1
7	1	2	1	4	1	2	1	3	5
	2	5	1	4	1	2	1	3	5
	3	1	1	4	1	2	1	3	5
8	1	10	3	2	3	3	1	4	1
	2	2	3	2	3	3	1	4	1
	3	6	3	2	3	3	1	4	1
9	1	5	5	2	2	4	2	1	1
	2	5	5	2	2	4	2	1	1
	3	5	5	2	2	4	2	1	1
10	1	10	3	5	1	5	2	4	2
	2	5	3	5	1	5	2	4	2
	3	7	3	5	1	5	2	4	2
11	1	0	0	0	0	0	0	0	0
17	16	14	15	13	29	62
